p cnf 15 62
-2 11 -12 14 0
-2 -11 12 13 0
-2 11 -12 13 0
-2 12 13 14 0
2 12 -13 0
2 -13 -14 0
2 -11 -12 0
2 11 12 -14 0
-3 12 13 14 0
-3 11 -13 14 0
3 -14 0
3 -12 13 0
3 -11 -13 0
-4 -11 12 5 0
-4 11 -14 -5 0
-4 11 12 14 0
4 -12 14 0
4 11 -14 5 0
4 -11 -5 0
4 -12 5 0
-5 12 13 0
5 -12 0
5 -13 0
6 11 -12 14 0
6 -11 12 13 0
6 11 -12 13 0
6 11 12 -13 0
-6 -11 -12 0
-6 -12 -13 -14 0
-6 -11 -13 0
-6 11 12 13 0
7 -11 -12 0
7 -11 -13 0
7 12 13 -14 0
7 -12 -13 -14 0
7 -12 13 14 0
-7 11 -13 14 0
-7 11 12 -13 0
-7 12 13 14 0
-7 11 -12 13 -14 0
-8 12 9 0
-8 -13 -14 9 0
-8 13 14 9 0
8 -9 0
8 -12 13 -14 0
8 -12 -13 14 0
9 -11 -5 0
-9 11 0
-9 5 0
10 -11 -5 0
10 12 14 -5 0
-10 5 0
-10 11 -12 0
-10 11 -14 0
-15 0
-2 0
-3 0
-4 0
6 0
-7 0
-8 0
-10 0

